(set-info :smt-lib-version 2.7)
(set-logic ALL)
(set-info :source |
Generated on: 2026-06-22
Generator: pog2smtlib-2.7 github.com/CLEARSY/pog2smtlib-2.7 (-l HO_ALL -rpX)
Application: Discharging a proof obligation generated by aTelierB from an anonymized B machine
Target solver: CVC5
Time limit: 1200.0
|)
(set-info :license "www.gnu.org/licenses/gpl-3.0.en.html")
(set-info :category "industrial")
(set-info :status unknown)

(define-sort |Z| () Int)
(declare-sort P 1)
(declare-datatype C (par (T1 T2) ((maplet (fst T1) (snd T2)))))
(declare-sort |s58| 0)
(define-sort |POW Z| () (P |Z|))
(define-sort |(Z x s58)| () (C |Z| |s58|))
(define-sort |POW s58| () (P |s58|))
(declare-fun |set.in Z| (|Z| |POW Z|) Bool)
(define-sort |POW (Z x s58)| () (P |(Z x s58)|))
(declare-fun |set.in s58| (|s58| |POW s58|) Bool)
(define-sort |((Z x s58) x Z)| () (C |(Z x s58)| |Z|))
(define-sort |(s58 x Z)| () (C |s58| |Z|))
(declare-fun |set.in (Z x s58)| (|(Z x s58)| |POW (Z x s58)|) Bool)
(define-sort |POW POW (Z x s58)| () (P |POW (Z x s58)|))
(define-sort |POW ((Z x s58) x Z)| () (P |((Z x s58) x Z)|))
(define-sort |POW (s58 x Z)| () (P |(s58 x Z)|))
(declare-fun |set.subseteq (Z x s58)| (|POW (Z x s58)| |POW (Z x s58)|) Bool)
(assert (!
    (forall ((s |POW (Z x s58)|) (t |POW (Z x s58)|))
      (=
        (|set.subseteq (Z x s58)| s t)
        (forall ((e |(Z x s58)|)) (=> (|set.in (Z x s58)| e s) (|set.in (Z x s58)| e t)))
      )
    )
    :named |ax.set.subseteq (Z x s58)|))
(declare-fun |set.in POW (Z x s58)| (|POW (Z x s58)| |POW POW (Z x s58)|) Bool)
(declare-fun |set.in ((Z x s58) x Z)| (|((Z x s58) x Z)| |POW ((Z x s58) x Z)|) Bool)
(define-sort |POW POW ((Z x s58) x Z)| () (P |POW ((Z x s58) x Z)|))
(declare-fun |set.in (s58 x Z)| (|(s58 x Z)| |POW (s58 x Z)|) Bool)
(define-sort |POW POW (s58 x Z)| () (P |POW (s58 x Z)|))
(declare-fun |sub-sets (Z x s58)| (|POW (Z x s58)|) |POW POW (Z x s58)|)
(assert (!
  (forall ((s |POW (Z x s58)|) (t |POW (Z x s58)|))
    (=
      (|set.in POW (Z x s58)| s (|sub-sets (Z x s58)| t))
      (|set.subseteq (Z x s58)| s t)))
  :named |ax.sub-sets (Z x s58)|))
(declare-fun |set.product Z s58| (|POW Z| |POW s58|) |POW (Z x s58)|)
(assert (!
  (forall ((s1 |POW Z|) (s2 |POW s58|))
    (forall ((p |(Z x s58)|))
      (= (|set.in (Z x s58)| p (|set.product Z s58| s1 s2))
        (and (|set.in Z| (fst p) s1) (|set.in s58| (snd p) s2)))))
  :named |ax.set.in.product.1 (Z x s58)|))
(assert (!
  (forall ((s1 |POW Z|) (s2 |POW s58|))
    (forall ((x1 |Z|) (x2 |s58|))
      (= (|set.in (Z x s58)| (maplet x1 x2) (|set.product Z s58| s1 s2))
        (and (|set.in Z| x1 s1) (|set.in s58| x2 s2)))))
  :named |ax.set.in.product.2 (Z x s58)|))
(declare-fun |rel.range (Z x s58) Z| (|POW ((Z x s58) x Z)|) |POW Z|)
(assert (!
  (forall ((r |POW ((Z x s58) x Z)|) (e |Z|))
    (= (|set.in Z| e (|rel.range (Z x s58) Z| r))
       (exists ((x |(Z x s58)|)) (|set.in ((Z x s58) x Z)| (maplet x e) r))))
  :named |ax:set.in.range ((Z x s58) x Z)|))
(assert (!
  (forall ((s |POW (Z x s58)|) (t |POW (Z x s58)|))
    (=
      (= s t)
      (forall ((e |(Z x s58)|)) (= (|set.in (Z x s58)| e s) (|set.in (Z x s58)| e t)))))
  :named |ax.set.eq (Z x s58)|))
(declare-fun |set.in POW ((Z x s58) x Z)| (|POW ((Z x s58) x Z)| |POW POW ((Z x s58) x Z)|) Bool)
(declare-fun |rel.range s58 Z| (|POW (s58 x Z)|) |POW Z|)
(assert (!
  (forall ((r |POW (s58 x Z)|) (e |Z|))
    (= (|set.in Z| e (|rel.range s58 Z| r))
       (exists ((x |s58|)) (|set.in (s58 x Z)| (maplet x e) r))))
  :named |ax:set.in.range (s58 x Z)|))
(assert (!
  (forall ((s |POW s58|) (t |POW s58|))
    (=
      (= s t)
      (forall ((e |s58|)) (= (|set.in s58| e s) (|set.in s58| e t)))))
  :named |ax.set.eq s58|))
(declare-fun |set.in POW (s58 x Z)| (|POW (s58 x Z)| |POW POW (s58 x Z)|) Bool)
(declare-fun |rel.domain Z s58| (|POW (Z x s58)|) |POW Z|)
(assert (!
  (forall ((r |POW (Z x s58)|) (e |Z|))
    (= (|set.in Z| e (|rel.domain Z s58| r))
       (exists ((y |s58|)) (|set.in (Z x s58)| (maplet e y) r))))
  :named |ax:set.in.domain (Z x s58)|))
(declare-fun |relations Z s58| (|POW Z| |POW s58|) |POW POW (Z x s58)|)
(assert (!
  (forall ((X |POW Z|) (Y |POW s58|))
    (= (|relations Z s58| X Y)
       (|sub-sets (Z x s58)| (|set.product Z s58| X Y))))
    :named |def.relations (Z x s58)|))
(declare-fun |functions Z s58| (|POW Z| |POW s58|) |POW POW (Z x s58)|)
(assert (!
  (forall ((X |POW Z|) (Y |POW s58|))
    (forall ((f |POW (Z x s58)|))
      (= (|set.in POW (Z x s58)| f (|functions Z s58| X Y))
         (forall ((p |(Z x s58)|) (q |(Z x s58)|))
           (=> (and (|set.in (Z x s58)| p f) (|set.in (Z x s58)| q f) (= (fst p) (fst q)))
               (= (snd p) (snd q)))))))
:named |ax:set.in.functions (Z x s58)|))
(declare-fun |surjections (Z x s58) Z| (|POW (Z x s58)| |POW Z|) |POW POW ((Z x s58) x Z)|)
(assert (!
  (forall ((X |POW (Z x s58)|) (Y |POW Z|))
    (forall ((f |POW ((Z x s58) x Z)|))
      (= (|set.in POW ((Z x s58) x Z)| f (|surjections (Z x s58) Z| X Y))
         (= (|rel.range (Z x s58) Z| f) Y)
      )))
  :named |ax:set.in.surjections ((Z x s58) x Z)|))
(declare-fun |injections (Z x s58) Z| (|POW (Z x s58)| |POW Z|) |POW POW ((Z x s58) x Z)|)
(assert (!
  (forall ((X |POW (Z x s58)|) (Y |POW Z|) (f |POW ((Z x s58) x Z)|))
     (= (|set.in POW ((Z x s58) x Z)| f (|injections (Z x s58) Z| X Y))
        (forall ((p |((Z x s58) x Z)|) (q |((Z x s58) x Z)|))
          (=> (and (|set.in ((Z x s58) x Z)| p f) (|set.in ((Z x s58) x Z)| q f) (= (snd p) (snd q)))
              (= (fst p) (fst q))))))
  :named |ax:set.in.injections ((Z x s58) x Z)|))
(declare-fun |surjections s58 Z| (|POW s58| |POW Z|) |POW POW (s58 x Z)|)
(assert (!
  (forall ((X |POW s58|) (Y |POW Z|))
    (forall ((f |POW (s58 x Z)|))
      (= (|set.in POW (s58 x Z)| f (|surjections s58 Z| X Y))
         (= (|rel.range s58 Z| f) Y)
      )))
  :named |ax:set.in.surjections (s58 x Z)|))
(declare-fun |injections s58 Z| (|POW s58| |POW Z|) |POW POW (s58 x Z)|)
(assert (!
  (forall ((X |POW s58|) (Y |POW Z|) (f |POW (s58 x Z)|))
     (= (|set.in POW (s58 x Z)| f (|injections s58 Z| X Y))
        (forall ((p |(s58 x Z)|) (q |(s58 x Z)|))
          (=> (and (|set.in (s58 x Z)| p f) (|set.in (s58 x Z)| q f) (= (snd p) (snd q)))
              (= (fst p) (fst q))))))
  :named |ax:set.in.injections (s58 x Z)|))
(declare-fun |relations.total Z s58| (|POW Z| |POW s58|) |POW POW (Z x s58)|)
(assert (!
  (forall ((X |POW Z|) (Y |POW s58|))
    (forall ((f |POW (Z x s58)|))
      (= (|set.in POW (Z x s58)| f (|relations.total Z s58| X Y))
         (= (|rel.domain Z s58| f) X))))
 :named |ax:set.in.relations.total (Z x s58)|))
(declare-fun |functions.partial Z s58| (|POW Z| |POW s58|) |POW POW (Z x s58)|)
(assert (!
  (forall ((e1 |POW Z|) (e2 |POW s58|))
    (forall ((f |POW (Z x s58)|))
      (= (|set.in POW (Z x s58)| f (|functions.partial Z s58| e1 e2))
         (and (|set.in POW (Z x s58)| f (|relations Z s58| e1 e2))
              (|set.in POW (Z x s58)| f (|functions Z s58| e1 e2))))))
  :named |ax:def.pfun (Z x s58)|)
)
(declare-fun |bijections (Z x s58) Z| (|POW (Z x s58)| |POW Z|) |POW POW ((Z x s58) x Z)|)
(assert (!
  (forall ((X |POW (Z x s58)|) (Y |POW Z|))
    (forall ((f |POW ((Z x s58) x Z)|))
      (= (|set.in POW ((Z x s58) x Z)| f (|bijections (Z x s58) Z| X Y))
         (and (|set.in POW ((Z x s58) x Z)| f (|injections (Z x s58) Z| X Y))
              (|set.in POW ((Z x s58) x Z)| f (|surjections (Z x s58) Z| X Y))))))
  :named |ax:set.in.bijections ((Z x s58) x Z)|))
(declare-datatype Cardinals ( ( Infinite ) ( Finite ( Value Int ) )))
(declare-fun |interval| (|Z| |Z|) |POW Z|)
 (assert (!
    (forall ((l |Z|) (u |Z|) (e |Z|))
        (= (|set.in Z| e (|interval| l u))
            (and (<= l e) (<= e u))))
    :named |ax.set.in.interval|))
(declare-fun |bijections s58 Z| (|POW s58| |POW Z|) |POW POW (s58 x Z)|)
(assert (!
  (forall ((X |POW s58|) (Y |POW Z|))
    (forall ((f |POW (s58 x Z)|))
      (= (|set.in POW (s58 x Z)| f (|bijections s58 Z| X Y))
         (and (|set.in POW (s58 x Z)| f (|injections s58 Z| X Y))
              (|set.in POW (s58 x Z)| f (|surjections s58 Z| X Y))))))
  :named |ax:set.in.bijections (s58 x Z)|))
(declare-fun |set.subseteq POW (Z x s58)| (|POW POW (Z x s58)| |POW POW (Z x s58)|) Bool)
(assert (!
    (forall ((s |POW POW (Z x s58)|) (t |POW POW (Z x s58)|))
      (=
        (|set.subseteq POW (Z x s58)| s t)
        (forall ((e |POW (Z x s58)|)) (=> (|set.in POW (Z x s58)| e s) (|set.in POW (Z x s58)| e t)))
      )
    )
    :named |ax.set.subseteq POW (Z x s58)|))
(declare-fun |functions.total Z s58| (|POW Z| |POW s58|) |POW POW (Z x s58)|)
(assert (!
  (forall ((e1 |POW Z|) (e2 |POW s58|))
    (forall ((f |POW (Z x s58)|))
      (= (|set.in POW (Z x s58)| f (|functions.total Z s58| e1 e2))
         (and (|set.in POW (Z x s58)| f (|functions.partial Z s58| e1 e2))
              (|set.in POW (Z x s58)| f (|relations.total Z s58| e1 e2))))))
  :named |ax:def.tfun (Z x s58)|))
(declare-fun |card (Z x s58)| (|POW (Z x s58)|) Cardinals)
(assert (!
  (forall ((s |POW (Z x s58)|))
    (or (= (|card (Z x s58)| s) Infinite)
        (exists ((f |POW ((Z x s58) x Z)|))
          (|set.in POW ((Z x s58) x Z)| f (|bijections (Z x s58) Z| s (|interval| 1 (Value (|card (Z x s58)| s))))))))
  :named |ax.card.definition (Z x s58)|))
(declare-fun |card s58| (|POW s58|) Cardinals)
(assert (!
  (forall ((s |POW s58|))
    (or (= (|card s58| s) Infinite)
        (exists ((f |POW (s58 x Z)|))
          (|set.in POW (s58 x Z)| f (|bijections s58 Z| s (|interval| 1 (Value (|card s58| s))))))))
  :named |ax.card.definition s58|))
(declare-fun |rel.range Z s58| (|POW (Z x s58)|) |POW s58|)
(assert (!
  (forall ((r |POW (Z x s58)|) (e |s58|))
    (= (|set.in s58| e (|rel.range Z s58| r))
       (exists ((x |Z|)) (|set.in (Z x s58)| (maplet x e) r))))
  :named |ax:set.in.range (Z x s58)|))
(assert (!
  (forall ((s |POW Z|) (t |POW Z|))
    (=
      (= s t)
      (forall ((e |Z|)) (= (|set.in Z| e s) (|set.in Z| e t)))))
  :named |ax.set.eq Z|))
(declare-fun |injections Z s58| (|POW Z| |POW s58|) |POW POW (Z x s58)|)
(assert (!
  (forall ((X |POW Z|) (Y |POW s58|) (f |POW (Z x s58)|))
     (= (|set.in POW (Z x s58)| f (|injections Z s58| X Y))
        (forall ((p |(Z x s58)|) (q |(Z x s58)|))
          (=> (and (|set.in (Z x s58)| p f) (|set.in (Z x s58)| q f) (= (snd p) (snd q)))
              (= (fst p) (fst q))))))
  :named |ax:set.in.injections (Z x s58)|))
(declare-const NATURAL1 |POW Z|)
(assert (!
  (forall ((e |Z|)) (= (|set.in Z| e NATURAL1) (<= 1 e)))
  :named |ax.set.in.NATURAL1|))
(declare-fun |seq s58| (|POW s58|) |POW POW (Z x s58)|)
(assert (!
  (forall ((E |POW s58|) (s |POW (Z x s58)|))
    (=>
      (|set.in POW (Z x s58)| s (|seq s58| E))
      ((_ is Finite) (|card (Z x s58)| s))))
  :named |ax.seq.is.finite s58|))
(assert (!
  (forall ((E |POW s58|))
    (|set.subseteq POW (Z x s58)|
      (|seq s58| E)
      (|functions.total Z s58| (|interval| 1 (Value (|card s58| E))) E)))
  :named |ax.seq.is.total.fun s58|))
(define-const MAXINT |Z| 2147483647)
(declare-fun |surjections Z s58| (|POW Z| |POW s58|) |POW POW (Z x s58)|)
(assert (!
  (forall ((X |POW Z|) (Y |POW s58|))
    (forall ((f |POW (Z x s58)|))
      (= (|set.in POW (Z x s58)| f (|surjections Z s58| X Y))
         (= (|rel.range Z s58| f) Y)
      )))
  :named |ax:set.in.surjections (Z x s58)|))
(declare-fun |iseq s58| (|POW s58|) |POW POW (Z x s58)|)
(assert (!
  (forall ((E |POW s58|)(s |POW (Z x s58)|))
    (= (|set.in POW (Z x s58)| s (|iseq s58| E))
       (and (|set.in POW (Z x s58)| s (|seq s58| E))
            (|set.in POW (Z x s58)| s (|injections Z s58| NATURAL1 E)))))
  :named |ax.iseq s58|))
(declare-const s323 |Z|)
(declare-const s348 |POW s58|)
(declare-const s58 |POW s58|)
(declare-const s350 |POW (Z x s58)|)
(declare-const s349 |s58|)
(declare-const NAT |POW Z|)
(assert (!
  (forall ((e |Z|)) (= (|set.in Z| e NAT) (and (<= 0 e) (<= e MAXINT))))
  :named |ax.set.in.NAT|))
(declare-fun |set.subseteq s58| (|POW s58| |POW s58|) Bool)
(assert (!
    (forall ((s |POW s58|) (t |POW s58|))
      (=
        (|set.subseteq s58| s t)
        (forall ((e |s58|)) (=> (|set.in s58| e s) (|set.in s58| e t)))
      )
    )
    :named |ax.set.subseteq s58|))
(declare-const |set.empty s58| |POW s58|)
(assert (!
  (forall ((e |s58|)) (not (|set.in s58| e |set.empty s58|)))
  :named |ax.set.in.empty s58|))
(declare-fun |rel.image Z s58| (|POW (Z x s58)| |POW Z|) |POW s58|)
(assert (!
  (forall ((r |POW (Z x s58)|) (s |POW Z|) (x |s58|))
    (= (|set.in s58| x (|rel.image Z s58| r s))
       (exists ((y |Z|)) (and (|set.in Z| y s) (|set.in (Z x s58)| (maplet y x) r)))))
  :named |ax:set.in.image (Z x POW (Z x s58))|))
(declare-fun |set.inter s58| (|POW s58| |POW s58|) |POW s58|)
(assert (!
  (forall ((e |s58|) (s |POW s58|) (t |POW s58|))
    (= (|set.in s58| e (|set.inter s58| s t))
       (and (|set.in s58| e s) (|set.in s58| e t))))
  :named |ax.set.in.inter s58|))
(declare-fun |perm s58| (|POW s58|) |POW POW (Z x s58)|)
(assert (!
  (forall ((E |POW s58|)(s |POW (Z x s58)|))
    (= (|set.in POW (Z x s58)| s (|perm s58| E))
       (and (|set.in POW (Z x s58)| s (|iseq s58| E))
            (|set.in POW (Z x s58)| s (|surjections Z s58| NATURAL1 E)))))
  :named |ax.perm Z|))
(assert (!
  (|set.in Z| s323 NAT)
  :named |Define:ctx:253|))
(assert (!
  (not
  (|set.in s58| s349 s348))
  :named |Define:ctx:291|))
(assert (!
  (|set.in POW (Z x s58)| s350 (|functions.partial Z s58| NAT s58))
  :named |Define:ctx:292|))
(assert (!
  (|set.in POW (Z x s58)| s350 (|perm s58| s348))
  :named |Define:ctx:293|))
(assert (!
  (<= s323 (Value (|card s58| s348)))
  :named |Define:ctx:585|))
(assert (!
  (not
    (exists
      ((s567$1 |Z|)(s569$1 |POW s58|))
      (and
        (|set.in Z| s567$1 NAT)
        (<= s567$1 s323)
        (|set.subseteq s58| s569$1 s348)
        (= (|set.inter s58| (|rel.image Z s58| s350 (|interval| 1 0)) s569$1) |set.empty s58|))))
  :named |Goal|))
(check-sat)
(exit)
